c strEdges: 189  randomEdges: 441 
c degrees:  2  3 
c girth: 10 max: 8.032766  
c Hgirth mixed MAXCUT instance
c generated from an undirected graph
c to solve unweighted MaxCut
p cnf 140 1260
12 84 0
-12 -84 0
12 95 0
-12 -95 0
12 100 0
-12 -100 0
118 17 0
-118 -17 0
118 76 0
-118 -76 0
82 131 0
-82 -131 0
82 13 0
-82 -13 0
82 38 0
-82 -38 0
123 79 0
-123 -79 0
123 92 0
-123 -92 0
81 5 0
-81 -5 0
81 86 0
-81 -86 0
81 70 0
-81 -70 0
129 19 0
-129 -19 0
129 103 0
-129 -103 0
129 84 0
-129 -84 0
91 47 0
-91 -47 0
91 69 0
-91 -69 0
91 46 0
-91 -46 0
93 25 0
-93 -25 0
93 31 0
-93 -31 0
93 137 0
-93 -137 0
101 38 0
-101 -38 0
101 47 0
-101 -47 0
101 17 0
-101 -17 0
30 112 0
-30 -112 0
30 6 0
-30 -6 0
1 83 0
-1 -83 0
1 13 0
-1 -13 0
1 8 0
-1 -8 0
125 26 0
-125 -26 0
125 61 0
-125 -61 0
125 126 0
-125 -126 0
49 6 0
-49 -6 0
49 14 0
-49 -14 0
49 46 0
-49 -46 0
32 50 0
-32 -50 0
32 135 0
-32 -135 0
32 87 0
-32 -87 0
140 65 0
-140 -65 0
140 18 0
-140 -18 0
140 94 0
-140 -94 0
37 126 0
-37 -126 0
37 45 0
-37 -45 0
37 111 0
-37 -111 0
85 35 0
-85 -35 0
85 20 0
-85 -20 0
85 66 0
-85 -66 0
114 116 0
-114 -116 0
114 26 0
-114 -26 0
114 104 0
-114 -104 0
107 77 0
-107 -77 0
107 83 0
-107 -83 0
107 48 0
-107 -48 0
138 66 0
-138 -66 0
138 131 0
-138 -131 0
138 100 0
-138 -100 0
58 8 0
-58 -8 0
58 50 0
-58 -50 0
58 74 0
-58 -74 0
39 44 0
-39 -44 0
39 15 0
-39 -15 0
39 116 0
-39 -116 0
120 71 0
-120 -71 0
120 128 0
-120 -128 0
120 69 0
-120 -69 0
16 42 0
-16 -42 0
16 65 0
-16 -65 0
16 133 0
-16 -133 0
23 4 0
-23 -4 0
23 35 0
-23 -35 0
23 31 0
-23 -31 0
108 56 0
-108 -56 0
108 90 0
-108 -90 0
7 70 0
-7 -70 0
7 77 0
-7 -77 0
43 105 0
-43 -105 0
43 15 0
-43 -15 0
43 38 0
-43 -38 0
52 2 0
-52 -2 0
52 19 0
-52 -19 0
52 133 0
-52 -133 0
122 61 0
-122 -61 0
122 70 0
-122 -70 0
122 42 0
-122 -42 0
9 60 0
-9 -60 0
9 54 0
-9 -54 0
9 124 0
-9 -124 0
27 29 0
-27 -29 0
27 66 0
-27 -66 0
27 21 0
-27 -21 0
68 89 0
-68 -89 0
68 99 0
-68 -99 0
68 5 0
-68 -5 0
136 54 0
-136 -54 0
136 71 0
-136 -71 0
72 111 0
-72 -111 0
72 4 0
-72 -4 0
72 65 0
-72 -65 0
3 134 0
-3 -134 0
3 64 0
-3 -64 0
10 92 0
-10 -92 0
10 90 0
-10 -90 0
10 18 0
-10 -18 0
73 76 0
-73 -76 0
73 4 0
-73 -4 0
109 100 0
-109 -100 0
109 44 0
-109 -44 0
98 121 0
-98 -121 0
98 95 0
-98 -95 0
98 128 0
-98 -128 0
63 87 0
-63 -87 0
63 60 0
-63 -60 0
63 130 0
-63 -130 0
67 128 0
-67 -128 0
67 94 0
-67 -94 0
67 112 0
-67 -112 0
80 103 0
-80 -103 0
80 25 0
-80 -25 0
80 24 0
-80 -24 0
117 90 0
-117 -90 0
117 47 0
-117 -47 0
139 137 0
-139 -137 0
139 50 0
-139 -50 0
139 104 0
-139 -104 0
33 13 0
-33 -13 0
33 56 0
-33 -56 0
33 134 0
-33 -134 0
53 69 0
-53 -69 0
53 77 0
-53 -77 0
119 94 0
-119 -94 0
119 116 0
-119 -116 0
11 86 0
-11 -86 0
11 24 0
-11 -24 0
11 130 0
-11 -130 0
55 31 0
-55 -31 0
55 112 0
-55 -112 0
55 64 0
-55 -64 0
34 20 0
-34 -20 0
34 60 0
-34 -60 0
78 99 0
-78 -99 0
78 124 0
-78 -124 0
97 51 0
-97 -51 0
97 76 0
-97 -76 0
28 21 0
-28 -21 0
28 61 0
-28 -61 0
28 17 0
-28 -17 0
57 14 0
-57 -14 0
57 29 0
-57 -29 0
57 48 0
-57 -48 0
40 135 0
-40 -135 0
40 121 0
-40 -121 0
40 45 0
-40 -45 0
36 124 0
-36 -124 0
36 2 0
-36 -2 0
36 56 0
-36 -56 0
132 104 0
-132 -104 0
132 51 0
-132 -51 0
132 2 0
-132 -2 0
127 130 0
-127 -130 0
127 22 0
-127 -22 0
127 14 0
-127 -14 0
41 48 0
-41 -48 0
41 51 0
-41 -51 0
41 79 0
-41 -79 0
75 95 0
-75 -95 0
75 89 0
-75 -89 0
59 18 0
-59 -18 0
59 20 0
-59 -20 0
59 83 0
-59 -83 0
106 64 0
-106 -64 0
106 105 0
-106 -105 0
106 99 0
-106 -99 0
88 74 0
-88 -74 0
88 105 0
-88 -105 0
88 84 0
-88 -84 0
62 24 0
-62 -24 0
62 92 0
-62 -92 0
96 46 0
-96 -46 0
96 42 0
-96 -42 0
96 74 0
-96 -74 0
102 45 0
-102 -45 0
102 134 0
-102 -134 0
102 79 0
-102 -79 0
110 133 0
-110 -133 0
113 22 0
-113 -22 0
113 111 0
-113 -111 0
115 15 0
-115 -15 0
115 22 0
-115 -22 0
39 109 0
-39 -109 0
111 46 0
-111 -46 0
28 79 0
-28 -79 0
117 57 0
-117 -57 0
43 17 0
-43 -17 0
60 13 0
-60 -13 0
85 36 0
-85 -36 0
23 62 0
-23 -62 0
119 51 0
-119 -51 0
32 74 0
-32 -74 0
77 124 0
-77 -124 0
73 121 0
-73 -121 0
54 128 0
-54 -128 0
28 111 0
-28 -111 0
114 60 0
-114 -60 0
114 132 0
-114 -132 0
87 15 0
-87 -15 0
43 55 0
-43 -55 0
67 44 0
-67 -44 0
8 104 0
-8 -104 0
67 40 0
-67 -40 0
112 77 0
-112 -77 0
82 66 0
-82 -66 0
42 100 0
-42 -100 0
81 22 0
-81 -22 0
80 35 0
-80 -35 0
129 98 0
-129 -98 0
129 100 0
-129 -100 0
25 29 0
-25 -29 0
28 69 0
-28 -69 0
85 48 0
-85 -48 0
52 5 0
-52 -5 0
97 45 0
-97 -45 0
129 47 0
-129 -47 0
36 48 0
-36 -48 0
117 94 0
-117 -94 0
53 97 0
-53 -97 0
27 78 0
-27 -78 0
49 109 0
-49 -109 0
27 115 0
-27 -115 0
120 83 0
-120 -83 0
67 119 0
-67 -119 0
79 100 0
-79 -100 0
1 7 0
-1 -7 0
57 110 0
-57 -110 0
9 21 0
-9 -21 0
16 50 0
-16 -50 0
34 4 0
-34 -4 0
17 128 0
-17 -128 0
43 11 0
-43 -11 0
30 120 0
-30 -120 0
1 75 0
-1 -75 0
106 14 0
-106 -14 0
49 51 0
-49 -51 0
7 137 0
-7 -137 0
82 79 0
-82 -79 0
1 105 0
-1 -105 0
82 60 0
-82 -60 0
110 131 0
-110 -131 0
109 60 0
-109 -60 0
129 110 0
-129 -110 0
37 104 0
-37 -104 0
120 31 0
-120 -31 0
124 46 0
-124 -46 0
72 92 0
-72 -92 0
122 34 0
-122 -34 0
43 84 0
-43 -84 0
88 50 0
-88 -50 0
67 31 0
-67 -31 0
31 130 0
-31 -130 0
106 62 0
-106 -62 0
110 77 0
-110 -77 0
7 73 0
-7 -73 0
30 24 0
-30 -24 0
12 59 0
-12 -59 0
53 41 0
-53 -41 0
40 31 0
-40 -31 0
1 114 0
-1 -114 0
53 126 0
-53 -126 0
78 69 0
-78 -69 0
109 94 0
-109 -94 0
49 72 0
-49 -72 0
109 8 0
-109 -8 0
49 122 0
-49 -122 0
10 17 0
-10 -17 0
98 71 0
-98 -71 0
72 137 0
-72 -137 0
29 74 0
-29 -74 0
2 133 0
-2 -133 0
67 60 0
-67 -60 0
59 103 0
-59 -103 0
77 104 0
-77 -104 0
104 48 0
-104 -48 0
67 90 0
-67 -90 0
102 92 0
-102 -92 0
6 18 0
-6 -18 0
16 18 0
-16 -18 0
9 71 0
-9 -71 0
108 46 0
-108 -46 0
110 66 0
-110 -66 0
5 26 0
-5 -26 0
80 100 0
-80 -100 0
96 110 0
-96 -110 0
40 15 0
-40 -15 0
12 131 0
-12 -131 0
89 95 0
-89 -95 0
81 40 0
-81 -40 0
55 71 0
-55 -71 0
126 103 0
-126 -103 0
68 20 0
-68 -20 0
33 119 0
-33 -119 0
127 105 0
-127 -105 0
27 19 0
-27 -19 0
53 137 0
-53 -137 0
125 113 0
-125 -113 0
23 46 0
-23 -46 0
7 41 0
-7 -41 0
30 72 0
-30 -72 0
25 60 0
-25 -60 0
139 92 0
-139 -92 0
136 17 0
-136 -17 0
123 32 0
-123 -32 0
110 6 0
-110 -6 0
120 106 0
-120 -106 0
136 60 0
-136 -60 0
140 54 0
-140 -54 0
73 67 0
-73 -67 0
50 126 0
-50 -126 0
126 95 0
-126 -95 0
88 62 0
-88 -62 0
30 113 0
-30 -113 0
119 44 0
-119 -44 0
41 66 0
-41 -66 0
28 44 0
-28 -44 0
42 56 0
-42 -56 0
80 95 0
-80 -95 0
114 92 0
-114 -92 0
54 14 0
-54 -14 0
97 42 0
-97 -42 0
34 48 0
-34 -48 0
129 124 0
-129 -124 0
105 134 0
-105 -134 0
122 48 0
-122 -48 0
67 20 0
-67 -20 0
125 75 0
-125 -75 0
112 64 0
-112 -64 0
10 34 0
-10 -34 0
7 110 0
-7 -110 0
68 84 0
-68 -84 0
116 105 0
-116 -105 0
11 87 0
-11 -87 0
17 92 0
-17 -92 0
50 15 0
-50 -15 0
25 74 0
-25 -74 0
90 64 0
-90 -64 0
16 128 0
-16 -128 0
19 126 0
-19 -126 0
71 69 0
-71 -69 0
62 54 0
-62 -54 0
34 131 0
-34 -131 0
6 15 0
-6 -15 0
139 76 0
-139 -76 0
138 96 0
-138 -96 0
67 59 0
-67 -59 0
93 75 0
-93 -75 0
7 45 0
-7 -45 0
102 22 0
-102 -22 0
98 4 0
-98 -4 0
8 105 0
-8 -105 0
49 26 0
-49 -26 0
82 84 0
-82 -84 0
63 70 0
-63 -70 0
50 56 0
-50 -56 0
58 10 0
-58 -10 0
26 2 0
-26 -2 0
35 70 0
-35 -70 0
114 100 0
-114 -100 0
59 51 0
-59 -51 0
132 126 0
-132 -126 0
129 74 0
-129 -74 0
98 126 0
-98 -126 0
33 53 0
-33 -53 0
27 57 0
-27 -57 0
125 15 0
-125 -15 0
120 11 0
-120 -11 0
136 112 0
-136 -112 0
123 83 0
-123 -83 0
32 94 0
-32 -94 0
122 97 0
-122 -97 0
110 60 0
-110 -60 0
30 60 0
-30 -60 0
131 121 0
-131 -121 0
136 55 0
-136 -55 0
126 54 0
-126 -54 0
120 79 0
-120 -79 0
122 5 0
-122 -5 0
129 99 0
-129 -99 0
139 70 0
-139 -70 0
110 35 0
-110 -35 0
98 44 0
-98 -44 0
122 106 0
-122 -106 0
138 87 0
-138 -87 0
97 71 0
-97 -71 0
132 47 0
-132 -47 0
134 46 0
-134 -46 0
106 112 0
-106 -112 0
123 125 0
-123 -125 0
59 87 0
-59 -87 0
66 70 0
-66 -70 0
1 111 0
-1 -111 0
20 15 0
-20 -15 0
109 22 0
-109 -22 0
52 28 0
-52 -28 0
28 6 0
-28 -6 0
16 59 0
-16 -59 0
118 3 0
-118 -3 0
112 128 0
-112 -128 0
113 38 0
-113 -38 0
52 34 0
-52 -34 0
138 11 0
-138 -11 0
16 116 0
-16 -116 0
117 76 0
-117 -76 0
33 28 0
-33 -28 0
1 29 0
-1 -29 0
44 124 0
-44 -124 0
27 65 0
-27 -65 0
119 103 0
-119 -103 0
11 96 0
-11 -96 0
1 65 0
-1 -65 0
91 97 0
-91 -97 0
118 13 0
-118 -13 0
140 38 0
-140 -38 0
33 25 0
-33 -25 0
30 104 0
-30 -104 0
24 133 0
-24 -133 0
37 115 0
-37 -115 0
47 60 0
-47 -60 0
57 51 0
-57 -51 0
28 59 0
-28 -59 0
100 51 0
-100 -51 0
41 133 0
-41 -133 0
67 126 0
-67 -126 0
10 44 0
-10 -44 0
6 66 0
-6 -66 0
84 66 0
-84 -66 0
63 115 0
-63 -115 0
126 116 0
-126 -116 0
140 35 0
-140 -35 0
55 61 0
-55 -61 0
32 20 0
-32 -20 0
7 112 0
-7 -112 0
39 106 0
-39 -106 0
114 112 0
-114 -112 0
40 87 0
-40 -87 0
35 54 0
-35 -54 0
122 4 0
-122 -4 0
139 90 0
-139 -90 0
63 25 0
-63 -25 0
97 24 0
-97 -24 0
140 73 0
-140 -73 0
46 15 0
-46 -15 0
91 100 0
-91 -100 0
79 48 0
-79 -48 0
33 100 0
-33 -100 0
88 130 0
-88 -130 0
83 31 0
-83 -31 0
109 50 0
-109 -50 0
72 80 0
-72 -80 0
43 24 0
-43 -24 0
79 94 0
-79 -94 0
16 24 0
-16 -24 0
83 134 0
-83 -134 0
82 33 0
-82 -33 0
96 44 0
-96 -44 0
138 90 0
-138 -90 0
112 2 0
-112 -2 0
89 69 0
-89 -69 0
58 97 0
-58 -97 0
123 70 0
-123 -70 0
9 110 0
-9 -110 0
114 109 0
-114 -109 0
72 42 0
-72 -42 0
110 115 0
-110 -115 0
37 112 0
-37 -112 0
139 26 0
-139 -26 0
118 114 0
-118 -114 0
127 95 0
-127 -95 0
47 90 0
-47 -90 0
30 10 0
-30 -10 0
32 117 0
-32 -117 0
65 77 0
-65 -77 0
140 25 0
-140 -25 0
81 67 0
-81 -67 0
23 83 0
-23 -83 0
63 89 0
-63 -89 0
34 56 0
-34 -56 0
11 128 0
-11 -128 0
136 69 0
-136 -69 0
139 40 0
-139 -40 0
1 24 0
-1 -24 0
73 106 0
-73 -106 0
56 133 0
-56 -133 0
85 31 0
-85 -31 0
64 133 0
-64 -133 0
121 31 0
-121 -31 0
67 64 0
-67 -64 0
107 108 0
-107 -108 0
79 20 0
-79 -20 0
112 70 0
-112 -70 0
120 96 0
-120 -96 0
91 89 0
-91 -89 0
118 129 0
-118 -129 0
59 111 0
-59 -111 0
52 121 0
-52 -121 0
60 18 0
-60 -18 0
29 95 0
-29 -95 0
3 15 0
-3 -15 0
25 56 0
-25 -56 0
8 89 0
-8 -89 0
108 100 0
-108 -100 0
44 56 0
-44 -56 0
58 134 0
-58 -134 0
63 31 0
-63 -31 0
85 42 0
-85 -42 0
129 61 0
-129 -61 0
138 69 0
-138 -69 0
114 51 0
-114 -51 0
16 92 0
-16 -92 0
118 39 0
-118 -39 0
121 21 0
-121 -21 0
36 79 0
-36 -79 0
91 10 0
-91 -10 0
96 84 0
-96 -84 0
50 95 0
-50 -95 0
72 130 0
-72 -130 0
39 76 0
-39 -76 0
67 25 0
-67 -25 0
10 73 0
-10 -73 0
111 51 0
-111 -51 0
12 98 0
-12 -98 0
106 133 0
-106 -133 0
112 76 0
-112 -76 0
67 113 0
-67 -113 0
23 28 0
-23 -28 0
93 71 0
-93 -71 0
131 79 0
-131 -79 0
11 36 0
-11 -36 0
72 48 0
-72 -48 0
84 99 0
-84 -99 0
40 131 0
-40 -131 0
97 50 0
-97 -50 0
7 36 0
-7 -36 0
115 8 0
-115 -8 0
118 99 0
-118 -99 0
43 61 0
-43 -61 0
101 31 0
-101 -31 0
136 15 0
-136 -15 0
110 87 0
-110 -87 0
109 48 0
-109 -48 0
12 21 0
-12 -21 0
81 3 0
-81 -3 0
120 34 0
-120 -34 0
82 52 0
-82 -52 0
102 19 0
-102 -19 0
41 17 0
-41 -17 0
89 104 0
-89 -104 0
77 134 0
-77 -134 0
52 78 0
-52 -78 0
30 49 0
-30 -49 0
49 121 0
-49 -121 0
67 24 0
-67 -24 0
118 64 0
-118 -64 0
30 58 0
-30 -58 0
114 68 0
-114 -68 0
122 75 0
-122 -75 0
109 90 0
-109 -90 0
80 106 0
-80 -106 0
49 77 0
-49 -77 0
76 46 0
-76 -46 0
77 128 0
-77 -128 0
120 35 0
-120 -35 0
139 15 0
-139 -15 0
34 5 0
-34 -5 0
82 127 0
-82 -127 0
52 113 0
-52 -113 0
122 96 0
-122 -96 0
76 48 0
-76 -48 0
131 38 0
-131 -38 0
38 6 0
-38 -6 0
30 65 0
-30 -65 0
58 64 0
-58 -64 0
129 30 0
-129 -30 0
41 24 0
-41 -24 0
114 41 0
-114 -41 0
128 14 0
-128 -14 0
101 111 0
-101 -111 0
49 56 0
-49 -56 0
34 40 0
-34 -40 0
63 106 0
-63 -106 0
55 22 0
-55 -22 0
77 94 0
-77 -94 0
26 44 0
-26 -44 0
16 70 0
-16 -70 0
70 92 0
-70 -92 0
126 105 0
-126 -105 0
88 90 0
-88 -90 0
117 33 0
-117 -33 0
125 23 0
-125 -23 0
17 131 0
-17 -131 0
96 56 0
-96 -56 0
81 127 0
-81 -127 0
55 79 0
-55 -79 0
38 60 0
-38 -60 0
115 121 0
-115 -121 0
132 14 0
-132 -14 0
110 124 0
-110 -124 0
32 69 0
-32 -69 0
36 94 0
-36 -94 0
79 26 0
-79 -26 0
97 31 0
-97 -31 0
125 108 0
-125 -108 0
6 69 0
-6 -69 0
123 126 0
-123 -126 0
77 24 0
-77 -24 0
105 29 0
-105 -29 0
9 48 0
-9 -48 0
129 80 0
-129 -80 0
44 133 0
-44 -133 0
32 42 0
-32 -42 0
139 45 0
-139 -45 0
122 60 0
-122 -60 0
7 79 0
-7 -79 0
68 139 0
-68 -139 0
118 50 0
-118 -50 0
138 26 0
-138 -26 0
37 135 0
-37 -135 0
50 121 0
-50 -121 0
28 71 0
-28 -71 0
123 30 0
-123 -30 0
8 20 0
-8 -20 0
131 100 0
-131 -100 0
